;; translated from ./bv/id_trans.c.vmt
;; original benchmark available at: https://es-static.fbk.eu/people/griggio/ic3ia/index.html
;; author: Alberto Griggio <griggio@fbk.eu>
(set-logic HORN)
(declare-fun state (Bool Bool Bool Bool (_ BitVec 32) (_ BitVec 32) (_ BitVec 32) (_ BitVec 32) (_ BitVec 32)) Bool)
(assert (forall ((|.PC.3| Bool) (|.PC.1.next| Bool) (|.PC.0.next| Bool) (|.PC.2.next| Bool) (|.PC.3.next| Bool) (|j__7$main| (_ BitVec 32)) (|j__7$main.next| (_ BitVec 32)) (|nlen__5$main| (_ BitVec 32)) (|nlen__5$main.next| (_ BitVec 32)) (|__RET__$main.next| (_ BitVec 32)) (|__RET__$main| (_ BitVec 32)) (|material_length__3$main| (_ BitVec 32)) (|material_length__3$main.next| (_ BitVec 32)) (|idBitLength__1$main| (_ BitVec 32)) (|idBitLength__1$main.next| (_ BitVec 32)) (|__NONDET_INLINE_INIT__6__6$main#2| (_ BitVec 32)) (|__NONDET_INLINE_INIT__4__5$main#1| (_ BitVec 32)) (|__NONDET_INLINE_INIT__2__4$main#0| (_ BitVec 32)) (|.PC.1| Bool) (|.PC.0| Bool) (|.PC.2| Bool)) (=> (let ((.def_15 (not .PC.1)))
(let ((.def_16 (and .PC.0 .def_15)))
(let ((.def_12 (not .PC.2)))
(let ((.def_17 (and .def_12 .def_16)))
(let ((.def_10 (not .PC.3)))
(let ((.def_18 (and .def_10 .def_17)))
.def_18)))))) (state |.PC.3| |.PC.2| |.PC.0| |.PC.1| |__RET__$main| |idBitLength__1$main| |j__7$main| |material_length__3$main| |nlen__5$main|))))
(assert (forall ((|.PC.3| Bool) (|.PC.1.next| Bool) (|.PC.0.next| Bool) (|.PC.2.next| Bool) (|.PC.3.next| Bool) (|j__7$main| (_ BitVec 32)) (|j__7$main.next| (_ BitVec 32)) (|nlen__5$main| (_ BitVec 32)) (|nlen__5$main.next| (_ BitVec 32)) (|__RET__$main.next| (_ BitVec 32)) (|__RET__$main| (_ BitVec 32)) (|material_length__3$main| (_ BitVec 32)) (|material_length__3$main.next| (_ BitVec 32)) (|idBitLength__1$main| (_ BitVec 32)) (|idBitLength__1$main.next| (_ BitVec 32)) (|__NONDET_INLINE_INIT__6__6$main#2| (_ BitVec 32)) (|__NONDET_INLINE_INIT__4__5$main#1| (_ BitVec 32)) (|__NONDET_INLINE_INIT__2__4$main#0| (_ BitVec 32)) (|.PC.1| Bool) (|.PC.0| Bool) (|.PC.2| Bool)) (=> (and (state |.PC.3| |.PC.2| |.PC.0| |.PC.1| |__RET__$main| |idBitLength__1$main| |j__7$main| |material_length__3$main| |nlen__5$main|) (let ((.def_80 (not .PC.0)))
(let ((.def_15 (not .PC.1)))
(let ((.def_165 (and .def_15 .def_80)))
(let ((.def_12 (not .PC.2)))
(let ((.def_170 (and .def_12 .def_165)))
(let ((.def_10 (not .PC.3)))
(let ((.def_171 (and .def_10 .def_170)))
(let ((.def_75 (not .PC.1.next)))
(let ((.def_43 (not .PC.0.next)))
(let ((.def_76 (and .def_43 .def_75)))
(let ((.def_47 (not .PC.2.next)))
(let ((.def_152 (and .def_47 .def_76)))
(let ((.def_50 (not .PC.3.next)))
(let ((.def_153 (and .def_50 .def_152)))
(let ((.def_172 (and .def_153 .def_171)))
(let ((.def_166 (and .PC.2 .def_165)))
(let ((.def_167 (and .def_10 .def_166)))
(let ((.def_68 (= j__7$main.next j__7$main)))
(let ((.def_66 (= nlen__5$main.next nlen__5$main)))
(let ((.def_148 (and .def_66 .def_68)))
(let ((.def_40 (= __RET__$main __RET__$main.next)))
(let ((.def_149 (and .def_40 .def_148)))
(let ((.def_71 (= material_length__3$main.next material_length__3$main)))
(let ((.def_150 (and .def_71 .def_149)))
(let ((.def_73 (= idBitLength__1$main.next idBitLength__1$main)))
(let ((.def_151 (and .def_73 .def_150)))
(let ((.def_154 (and .def_151 .def_153)))
(let ((.def_168 (and .def_154 .def_167)))
(let ((.def_16 (and .PC.0 .def_15)))
(let ((.def_161 (and .PC.2 .def_16)))
(let ((.def_162 (and .def_10 .def_161)))
(let ((.def_163 (and .def_154 .def_162)))
(let ((.def_81 (and .PC.1 .def_80)))
(let ((.def_157 (and .PC.2 .def_81)))
(let ((.def_158 (and .def_10 .def_157)))
(let ((.def_159 (and .def_154 .def_158)))
(let ((.def_145 (and .PC.0 .PC.1)))
(let ((.def_146 (and .PC.2 .def_145)))
(let ((.def_147 (and .def_10 .def_146)))
(let ((.def_155 (and .def_147 .def_154)))
(let ((.def_135 (bvadd (_ bv1 32) j__7$main)))
(let ((.def_136 (= j__7$main.next .def_135)))
(let ((.def_103 (bvsdiv j__7$main (_ bv4 32))))
(let ((.def_104 ((_ extract 31 31) .def_103)))
(let ((.def_105 (= .def_104 (_ bv1 1))))
(let ((.def_119 (not .def_105)))
(let ((.def_62 ((_ extract 31 31) j__7$main)))
(let ((.def_63 (= .def_62 (_ bv1 1))))
(let ((.def_87 (not .def_63)))
(let ((.def_60 (bvslt j__7$main material_length__3$main)))
(let ((.def_56 (bvsdiv idBitLength__1$main (_ bv8 32))))
(let ((.def_58 (bvslt j__7$main .def_56)))
(let ((.def_61 (and .def_58 .def_60)))
(let ((.def_88 (and .def_61 .def_87)))
(let ((.def_101 (and .def_60 .def_88)))
(let ((.def_120 (and .def_101 .def_119)))
(let ((.def_117 (bvslt .def_103 nlen__5$main)))
(let ((.def_133 (and .def_117 .def_120)))
(let ((.def_137 (and .def_133 .def_136)))
(let ((.def_138 (and .def_66 .def_137)))
(let ((.def_139 (and .def_40 .def_138)))
(let ((.def_140 (and .def_71 .def_139)))
(let ((.def_141 (and .def_73 .def_140)))
(let ((.def_45 (and .def_43 .PC.1.next)))
(let ((.def_48 (and .def_45 .def_47)))
(let ((.def_51 (and .def_48 .def_50)))
(let ((.def_142 (and .def_51 .def_141)))
(let ((.def_82 (and .def_12 .def_81)))
(let ((.def_83 (and .def_10 .def_82)))
(let ((.def_143 (and .def_83 .def_142)))
(let ((.def_127 (and .PC.0.next .PC.1.next)))
(let ((.def_128 (and .PC.2.next .def_127)))
(let ((.def_129 (and .def_50 .def_128)))
(let ((.def_118 (not .def_117)))
(let ((.def_121 (and .def_118 .def_120)))
(let ((.def_122 (and .def_66 .def_121)))
(let ((.def_123 (and .def_68 .def_122)))
(let ((.def_124 (and .def_40 .def_123)))
(let ((.def_125 (and .def_71 .def_124)))
(let ((.def_126 (and .def_73 .def_125)))
(let ((.def_130 (and .def_126 .def_129)))
(let ((.def_131 (and .def_83 .def_130)))
(let ((.def_112 (and .def_45 .PC.2.next)))
(let ((.def_113 (and .def_50 .def_112)))
(let ((.def_106 (and .def_101 .def_105)))
(let ((.def_107 (and .def_66 .def_106)))
(let ((.def_108 (and .def_68 .def_107)))
(let ((.def_109 (and .def_40 .def_108)))
(let ((.def_110 (and .def_71 .def_109)))
(let ((.def_111 (and .def_73 .def_110)))
(let ((.def_114 (and .def_111 .def_113)))
(let ((.def_115 (and .def_83 .def_114)))
(let ((.def_95 (and .PC.0.next .def_75)))
(let ((.def_96 (and .PC.2.next .def_95)))
(let ((.def_97 (and .def_50 .def_96)))
(let ((.def_86 (not .def_60)))
(let ((.def_89 (and .def_86 .def_88)))
(let ((.def_90 (and .def_66 .def_89)))
(let ((.def_91 (and .def_68 .def_90)))
(let ((.def_92 (and .def_40 .def_91)))
(let ((.def_93 (and .def_71 .def_92)))
(let ((.def_94 (and .def_73 .def_93)))
(let ((.def_98 (and .def_94 .def_97)))
(let ((.def_99 (and .def_83 .def_98)))
(let ((.def_77 (and .PC.2.next .def_76)))
(let ((.def_78 (and .def_50 .def_77)))
(let ((.def_64 (and .def_61 .def_63)))
(let ((.def_67 (and .def_64 .def_66)))
(let ((.def_69 (and .def_67 .def_68)))
(let ((.def_70 (and .def_40 .def_69)))
(let ((.def_72 (and .def_70 .def_71)))
(let ((.def_74 (and .def_72 .def_73)))
(let ((.def_79 (and .def_74 .def_78)))
(let ((.def_84 (and .def_79 .def_83)))
(let ((.def_36 (= j__7$main.next (_ bv0 32))))
(let ((.def_31 (bvsdiv idBitLength__1$main.next (_ bv32 32))))
(let ((.def_32 (= nlen__5$main.next .def_31)))
(let ((.def_28 (= nlen__5$main.next |__NONDET_INLINE_INIT__6__6$main#2|)))
(let ((.def_24 (= material_length__3$main.next |__NONDET_INLINE_INIT__4__5$main#1|)))
(let ((.def_21 (= idBitLength__1$main.next |__NONDET_INLINE_INIT__2__4$main#0|)))
(let ((.def_25 (and .def_21 .def_24)))
(let ((.def_29 (and .def_25 .def_28)))
(let ((.def_33 (and .def_29 .def_32)))
(let ((.def_37 (and .def_33 .def_36)))
(let ((.def_41 (and .def_37 .def_40)))
(let ((.def_52 (and .def_41 .def_51)))
(let ((.def_17 (and .def_12 .def_16)))
(let ((.def_18 (and .def_10 .def_17)))
(let ((.def_53 (and .def_18 .def_52)))
(let ((.def_85 (or .def_53 .def_84)))
(let ((.def_100 (or .def_85 .def_99)))
(let ((.def_116 (or .def_100 .def_115)))
(let ((.def_132 (or .def_116 .def_131)))
(let ((.def_144 (or .def_132 .def_143)))
(let ((.def_156 (or .def_144 .def_155)))
(let ((.def_160 (or .def_156 .def_159)))
(let ((.def_164 (or .def_160 .def_163)))
(let ((.def_169 (or .def_164 .def_168)))
(let ((.def_173 (or .def_169 .def_172)))
.def_173)))))))))))))))))))))))))))))))))))))))))))))))))))))))))))))))))))))))))))))))))))))))))))))))))))))))))))))))))))))))))))))))))))))))))))) (state |.PC.3.next| |.PC.2.next| |.PC.0.next| |.PC.1.next| |__RET__$main.next| |idBitLength__1$main.next| |j__7$main.next| |material_length__3$main.next| |nlen__5$main.next|))))
(assert (forall ((|.PC.3| Bool) (|.PC.1.next| Bool) (|.PC.0.next| Bool) (|.PC.2.next| Bool) (|.PC.3.next| Bool) (|j__7$main| (_ BitVec 32)) (|j__7$main.next| (_ BitVec 32)) (|nlen__5$main| (_ BitVec 32)) (|nlen__5$main.next| (_ BitVec 32)) (|__RET__$main.next| (_ BitVec 32)) (|__RET__$main| (_ BitVec 32)) (|material_length__3$main| (_ BitVec 32)) (|material_length__3$main.next| (_ BitVec 32)) (|idBitLength__1$main| (_ BitVec 32)) (|idBitLength__1$main.next| (_ BitVec 32)) (|__NONDET_INLINE_INIT__6__6$main#2| (_ BitVec 32)) (|__NONDET_INLINE_INIT__4__5$main#1| (_ BitVec 32)) (|__NONDET_INLINE_INIT__2__4$main#0| (_ BitVec 32)) (|.PC.1| Bool) (|.PC.0| Bool) (|.PC.2| Bool)) (=> (state |.PC.3| |.PC.2| |.PC.0| |.PC.1| |__RET__$main| |idBitLength__1$main| |j__7$main| |material_length__3$main| |nlen__5$main|) (let ((.def_80 (not .PC.0)))
(let ((.def_15 (not .PC.1)))
(let ((.def_165 (and .def_15 .def_80)))
(let ((.def_12 (not .PC.2)))
(let ((.def_170 (and .def_12 .def_165)))
(let ((.def_10 (not .PC.3)))
(let ((.def_171 (and .def_10 .def_170)))
(let ((.def_174 (not .def_171)))
.def_174)))))))))))
(check-sat)
